(set-info :source |printed by MathSAT|)
(declare-fun __ADDRESS_OF_Num () Real)
(declare-fun |__ADDRESS_OF_main::pname| () Real)
(declare-fun |__ADDRESS_OF_Poker_create::pn| () Real)
(declare-fun __BASE_ADDRESS_OF__ (Real) Real)
(declare-fun |main::__CPAchecker_TMP_3@3| () Real)
(declare-fun Num@4 () Real)
(declare-fun |__ADDRESS_OF_main::__CPAchecker_TMP_0| () Real)
(declare-fun __string__ (Real) Real)
(declare-fun |Poker_create::name@3| () Real)
(declare-fun |__ADDRESS_OF_main::__CPAchecker_TMP_2| () Real)
(declare-fun strdup (Real) Real)
(declare-fun |__ADDRESS_OF_main::play| () Real)
(declare-fun |main::__CPAchecker_TMP_0@3| () Real)
(declare-fun |Poker_create::pn@5| () Real)
(declare-fun |*((char)*)*@1| (Real) Real)
(declare-fun |main::__CPAchecker_TMP_2@3| () Real)
(declare-fun |main::play@2| () Real)
(declare-fun Rational__%_ (Real Real) Real)
(declare-fun |Poker_create::name@2| () Real)
(declare-fun |__ADDRESS_OF___VERIFIER_successful_alloc_*void#0| () Real)
(declare-fun |__ADDRESS_OF_main::__CPAchecker_TMP_3| () Real)
(declare-fun |Poker_create::pn@3| () Real)
(declare-fun |__ADDRESS_OF___VERIFIER_successful_alloc_*void#1| () Real)
(declare-fun |__ADDRESS_OF_main::fst| () Real)
(declare-fun |*(char)*@2| (Real) Real)
(declare-fun |Poker_create::__retval__@2| () Real)
(declare-fun |Poker_create::num@3| () Real)
(declare-fun rand () Real)
(declare-fun Num@5 () Real)
(declare-fun |main::__CPAchecker_TMP_1@3| () Real)
(declare-fun Num@2 () Real)
(declare-fun |Poker_create::num@2| () Real)
(declare-fun Num@3 () Real)
(declare-fun |__ADDRESS_OF_main::sec| () Real)
(declare-fun |__ADDRESS_OF_main::__CPAchecker_TMP_1| () Real)
(declare-fun |*(char)*@1| (Real) Real)
(declare-fun |main::fst@3| () Real)
(declare-fun *signed_int@2 (Real) Real)
(define-fun .def_269 () Bool (<= (to_real 0) Num@5))
(define-fun .def_272 () Bool (not .def_269))
(define-fun .def_265 () Real (* (to_real (- 1)) Num@5))
(define-fun .def_266 () Real (+ Num@4 .def_265))
(define-fun .def_267 () Bool (= .def_266 (to_real 1)))
(define-fun .def_260 () Bool (= |__ADDRESS_OF___VERIFIER_successful_alloc_*void#1| |Poker_create::pn@5|))
(define-fun .def_255 () Real (* (to_real (- 1)) |__ADDRESS_OF___VERIFIER_successful_alloc_*void#1|))
(define-fun .def_256 () Real (+ |__ADDRESS_OF___VERIFIER_successful_alloc_*void#0| .def_255))
(define-fun .def_257 () Bool (<= .def_256 (to_real (- 8))))
(define-fun .def_253 () Bool (<= |__ADDRESS_OF___VERIFIER_successful_alloc_*void#0| (to_real (- 8))))
(define-fun .def_254 () Bool (not .def_253))
(define-fun .def_258 () Bool (and .def_254 .def_257))
(define-fun .def_261 () Bool (and .def_258 .def_260))
(define-fun .def_244 () Real (* (to_real (- 1)) |Poker_create::num@3|))
(define-fun .def_241 () Real (Rational__%_ |main::__CPAchecker_TMP_3@3| (to_real 13)))
(define-fun .def_245 () Real (+ .def_241 .def_244))
(define-fun .def_246 () Bool (= .def_245 (to_real (- 1))))
(define-fun .def_235 () Real (Rational__%_ |main::__CPAchecker_TMP_2@3| (to_real 4)))
(define-fun .def_236 () Real (* (to_real 4) .def_235))
(define-fun .def_90 () Real (|*((char)*)*@1| |__ADDRESS_OF_main::pname|))
(define-fun .def_237 () Real (+ .def_90 .def_236))
(define-fun .def_238 () Real (|*(char)*@2| .def_237))
(define-fun .def_240 () Bool (= .def_238 |Poker_create::name@3|))
(define-fun .def_247 () Bool (and .def_240 .def_246))
(define-fun .def_233 () Bool (= rand |main::__CPAchecker_TMP_3@3|))
(define-fun .def_229 () Real (__BASE_ADDRESS_OF__ |__ADDRESS_OF_main::__CPAchecker_TMP_3|))
(define-fun .def_230 () Bool (= |__ADDRESS_OF_main::__CPAchecker_TMP_3| .def_229))
(define-fun .def_226 () Bool (= rand |main::__CPAchecker_TMP_2@3|))
(define-fun .def_222 () Real (__BASE_ADDRESS_OF__ |__ADDRESS_OF_main::__CPAchecker_TMP_2|))
(define-fun .def_223 () Bool (= |__ADDRESS_OF_main::__CPAchecker_TMP_2| .def_222))
(define-fun .def_219 () Bool (= |Poker_create::__retval__@2| |main::fst@3|))
(define-fun .def_215 () Bool (= |Poker_create::pn@3| |Poker_create::__retval__@2|))
(define-fun .def_211 () Real (+ |Poker_create::pn@3| (to_real 4)))
(define-fun .def_212 () Real (*signed_int@2 .def_211))
(define-fun .def_213 () Bool (= |Poker_create::num@2| .def_212))
(define-fun .def_216 () Bool (and .def_213 .def_215))
(define-fun .def_194 () Bool (<= (to_real 0) Num@4))
(define-fun .def_190 () Real (* (to_real (- 1)) Num@4))
(define-fun .def_191 () Real (+ Num@3 .def_190))
(define-fun .def_192 () Bool (= .def_191 (to_real 1)))
(define-fun .def_37 () Real (+ |__ADDRESS_OF_main::pname| (to_real 8)))
(define-fun .def_177 () Real (|*(char)*@2| .def_37))
(define-fun .def_38 () Real (|*(char)*@1| .def_37))
(define-fun .def_178 () Bool (= .def_38 .def_177))
(define-fun .def_44 () Real (+ |__ADDRESS_OF_main::pname| (to_real 12)))
(define-fun .def_175 () Real (|*(char)*@2| .def_44))
(define-fun .def_45 () Real (|*(char)*@1| .def_44))
(define-fun .def_176 () Bool (= .def_45 .def_175))
(define-fun .def_183 () Bool (and .def_176 .def_178))
(define-fun .def_31 () Real (+ |__ADDRESS_OF_main::pname| (to_real 4)))
(define-fun .def_179 () Real (|*(char)*@2| .def_31))
(define-fun .def_32 () Real (|*(char)*@1| .def_31))
(define-fun .def_180 () Bool (= .def_32 .def_179))
(define-fun .def_184 () Bool (and .def_180 .def_183))
(define-fun .def_181 () Real (|*(char)*@2| |__ADDRESS_OF_main::pname|))
(define-fun .def_27 () Real (|*(char)*@1| |__ADDRESS_OF_main::pname|))
(define-fun .def_182 () Bool (= .def_27 .def_181))
(define-fun .def_185 () Bool (and .def_182 .def_184))
(define-fun .def_173 () Real (|*(char)*@2| |Poker_create::pn@3|))
(define-fun .def_172 () Real (strdup |Poker_create::name@2|))
(define-fun .def_174 () Bool (= .def_172 .def_173))
(define-fun .def_186 () Bool (and .def_174 .def_185))
(define-fun .def_163 () Bool (= |Poker_create::pn@3| (to_real 0)))
(define-fun .def_164 () Bool (not .def_163))
(define-fun .def_129 () Bool (<= (to_real 0) Num@3))
(define-fun .def_125 () Real (* (to_real (- 1)) Num@3))
(define-fun .def_126 () Real (+ Num@2 .def_125))
(define-fun .def_127 () Bool (= .def_126 (to_real 1)))
(define-fun .def_120 () Bool (= |__ADDRESS_OF___VERIFIER_successful_alloc_*void#0| |Poker_create::pn@3|))
(define-fun .def_115 () Real (* (to_real (- 1)) |__ADDRESS_OF___VERIFIER_successful_alloc_*void#0|))
(define-fun .def_116 () Real (+ |__ADDRESS_OF_main::play| .def_115))
(define-fun .def_117 () Bool (<= .def_116 (to_real (- 4))))
(define-fun .def_113 () Bool (<= |__ADDRESS_OF_main::play| (to_real (- 4))))
(define-fun .def_114 () Bool (not .def_113))
(define-fun .def_118 () Bool (and .def_114 .def_117))
(define-fun .def_121 () Bool (and .def_118 .def_120))
(define-fun .def_107 () Real (__BASE_ADDRESS_OF__ |__ADDRESS_OF_Poker_create::pn|))
(define-fun .def_108 () Bool (= |__ADDRESS_OF_Poker_create::pn| .def_107))
(define-fun .def_101 () Real (* (to_real (- 1)) |Poker_create::num@2|))
(define-fun .def_98 () Real (Rational__%_ |main::__CPAchecker_TMP_1@3| (to_real 13)))
(define-fun .def_102 () Real (+ .def_98 .def_101))
(define-fun .def_103 () Bool (= .def_102 (to_real (- 1))))
(define-fun .def_91 () Real (Rational__%_ |main::__CPAchecker_TMP_0@3| (to_real 4)))
(define-fun .def_92 () Real (* (to_real 4) .def_91))
(define-fun .def_93 () Real (+ .def_90 .def_92))
(define-fun .def_94 () Real (|*(char)*@1| .def_93))
(define-fun .def_96 () Bool (= .def_94 |Poker_create::name@2|))
(define-fun .def_104 () Bool (and .def_96 .def_103))
(define-fun .def_88 () Bool (= rand |main::__CPAchecker_TMP_1@3|))
(define-fun .def_84 () Real (__BASE_ADDRESS_OF__ |__ADDRESS_OF_main::__CPAchecker_TMP_1|))
(define-fun .def_85 () Bool (= |__ADDRESS_OF_main::__CPAchecker_TMP_1| .def_84))
(define-fun .def_81 () Bool (= rand |main::__CPAchecker_TMP_0@3|))
(define-fun .def_76 () Real (__BASE_ADDRESS_OF__ |__ADDRESS_OF_main::__CPAchecker_TMP_0|))
(define-fun .def_77 () Bool (= |__ADDRESS_OF_main::__CPAchecker_TMP_0| .def_76))
(define-fun .def_70 () Bool (<= |main::play@2| (to_real 0)))
(define-fun .def_71 () Bool (not .def_70))
(define-fun .def_63 () Real (* (to_real (- 1)) |__ADDRESS_OF_main::play|))
(define-fun .def_64 () Real (+ |__ADDRESS_OF_main::pname| .def_63))
(define-fun .def_65 () Bool (<= .def_64 (to_real (- 16))))
(define-fun .def_60 () Bool (<= |__ADDRESS_OF_main::pname| (to_real (- 16))))
(define-fun .def_61 () Bool (not .def_60))
(define-fun .def_66 () Bool (and .def_61 .def_65))
(define-fun .def_55 () Real (__BASE_ADDRESS_OF__ |__ADDRESS_OF_main::play|))
(define-fun .def_56 () Bool (= |__ADDRESS_OF_main::play| .def_55))
(define-fun .def_67 () Bool (and .def_56 .def_66))
(define-fun .def_15 () Real (__BASE_ADDRESS_OF__ |__ADDRESS_OF_main::fst|))
(define-fun .def_16 () Bool (= |__ADDRESS_OF_main::fst| .def_15))
(define-fun .def_9 () Real (__BASE_ADDRESS_OF__ __ADDRESS_OF_Num))
(define-fun .def_10 () Bool (= __ADDRESS_OF_Num .def_9))
(define-fun .def_49 () Bool (and .def_10 .def_16))
(define-fun .def_18 () Real (__BASE_ADDRESS_OF__ |__ADDRESS_OF_main::sec|))
(define-fun .def_19 () Bool (= |__ADDRESS_OF_main::sec| .def_18))
(define-fun .def_50 () Bool (and .def_19 .def_49))
(define-fun .def_21 () Real (__BASE_ADDRESS_OF__ |__ADDRESS_OF_main::pname|))
(define-fun .def_22 () Bool (= |__ADDRESS_OF_main::pname| .def_21))
(define-fun .def_51 () Bool (and .def_22 .def_50))
(define-fun .def_23 () Bool (<= |__ADDRESS_OF_main::pname| (to_real 0)))
(define-fun .def_24 () Bool (not .def_23))
(define-fun .def_52 () Bool (and .def_24 .def_51))
(define-fun .def_42 () Real (__string__ (to_real 3)))
(define-fun .def_46 () Bool (= .def_42 .def_45))
(define-fun .def_35 () Real (__string__ (to_real 2)))
(define-fun .def_39 () Bool (= .def_35 .def_38))
(define-fun .def_30 () Real (__string__ (to_real 1)))
(define-fun .def_33 () Bool (= .def_30 .def_32))
(define-fun .def_25 () Real (__string__ (to_real 0)))
(define-fun .def_28 () Bool (= .def_25 .def_27))
(define-fun .def_34 () Bool (and .def_28 .def_33))
(define-fun .def_40 () Bool (and .def_34 .def_39))
(define-fun .def_47 () Bool (and .def_40 .def_46))
(define-fun .def_13 () Bool (= Num@2 (to_real 2)))
(define-fun .def_48 () Bool (and .def_13 .def_47))
(define-fun .def_53 () Bool (and .def_48 .def_52))
(define-fun .def_68 () Bool (and .def_53 .def_67))
(define-fun .def_73 () Bool (and .def_68 .def_71))
(define-fun .def_78 () Bool (and .def_73 .def_77))
(define-fun .def_82 () Bool (and .def_78 .def_81))
(define-fun .def_86 () Bool (and .def_82 .def_85))
(define-fun .def_89 () Bool (and .def_86 .def_88))
(define-fun .def_105 () Bool (and .def_89 .def_104))
(define-fun .def_109 () Bool (and .def_105 .def_108))
(define-fun .def_122 () Bool (and .def_109 .def_121))
(define-fun .def_128 () Bool (and .def_122 .def_127))
(define-fun .def_131 () Bool (and .def_128 .def_129))
(define-fun .def_166 () Bool (and .def_131 .def_164))
(define-fun .def_187 () Bool (and .def_166 .def_186))
(define-fun .def_193 () Bool (and .def_187 .def_192))
(define-fun .def_196 () Bool (and .def_193 .def_194))
(define-fun .def_217 () Bool (and .def_196 .def_216))
(define-fun .def_220 () Bool (and .def_217 .def_219))
(define-fun .def_224 () Bool (and .def_220 .def_223))
(define-fun .def_227 () Bool (and .def_224 .def_226))
(define-fun .def_231 () Bool (and .def_227 .def_230))
(define-fun .def_234 () Bool (and .def_231 .def_233))
(define-fun .def_248 () Bool (and .def_234 .def_247))
(define-fun .def_249 () Bool (and .def_108 .def_248))
(define-fun .def_262 () Bool (and .def_249 .def_261))
(define-fun .def_268 () Bool (and .def_262 .def_267))
(define-fun .def_273 () Bool (and .def_268 .def_272))
(assert .def_273)
